p tw 50 587
e 0 1
e 0 4
e 0 5
e 0 6
e 0 9
e 0 10
e 0 12
e 0 14
e 0 15
e 0 17
e 0 20
e 0 21
e 0 24
e 0 25
e 0 26
e 0 27
e 0 28
e 0 29
e 0 30
e 0 31
e 0 32
e 0 33
e 0 34
e 0 35
e 0 36
e 0 40
e 0 43
e 0 44
e 0 48
e 1 3
e 1 9
e 1 10
e 1 12
e 1 13
e 1 17
e 1 18
e 1 22
e 1 23
e 1 24
e 1 25
e 1 29
e 1 30
e 1 36
e 1 40
e 1 41
e 1 44
e 2 5
e 2 6
e 2 9
e 2 11
e 2 12
e 2 13
e 2 17
e 2 18
e 2 19
e 2 20
e 2 26
e 2 29
e 2 30
e 2 31
e 2 33
e 2 34
e 2 36
e 2 37
e 2 38
e 2 40
e 2 41
e 2 43
e 2 44
e 2 45
e 2 46
e 2 47
e 2 48
e 2 49
e 3 4
e 3 7
e 3 10
e 3 11
e 3 12
e 3 14
e 3 18
e 3 22
e 3 24
e 3 26
e 3 28
e 3 29
e 3 32
e 3 34
e 3 37
e 3 38
e 3 39
e 3 41
e 3 45
e 4 5
e 4 6
e 4 7
e 4 9
e 4 10
e 4 11
e 4 13
e 4 14
e 4 15
e 4 18
e 4 19
e 4 20
e 4 23
e 4 24
e 4 28
e 4 31
e 4 33
e 4 35
e 4 36
e 4 38
e 4 42
e 4 43
e 4 44
e 4 49
e 5 7
e 5 8
e 5 9
e 5 13
e 5 16
e 5 18
e 5 19
e 5 20
e 5 24
e 5 25
e 5 28
e 5 30
e 5 31
e 5 33
e 5 34
e 5 36
e 5 37
e 5 38
e 5 39
e 5 41
e 5 43
e 5 46
e 5 47
e 5 48
e 5 49
e 6 8
e 6 9
e 6 11
e 6 13
e 6 14
e 6 15
e 6 19
e 6 20
e 6 26
e 6 28
e 6 29
e 6 30
e 6 31
e 6 33
e 6 37
e 6 38
e 6 39
e 6 40
e 6 43
e 6 44
e 6 48
e 6 49
e 7 8
e 7 9
e 7 11
e 7 12
e 7 14
e 7 16
e 7 18
e 7 21
e 7 23
e 7 27
e 7 28
e 7 31
e 7 33
e 7 35
e 7 36
e 7 43
e 7 44
e 7 45
e 7 48
e 7 49
e 8 14
e 8 15
e 8 16
e 8 17
e 8 18
e 8 20
e 8 22
e 8 23
e 8 24
e 8 25
e 8 26
e 8 28
e 8 29
e 8 31
e 8 32
e 8 36
e 8 39
e 8 40
e 8 41
e 8 42
e 8 43
e 8 47
e 8 49
e 9 10
e 9 13
e 9 16
e 9 19
e 9 27
e 9 28
e 9 29
e 9 32
e 9 35
e 9 37
e 9 39
e 9 43
e 9 46
e 10 12
e 10 15
e 10 17
e 10 18
e 10 19
e 10 20
e 10 23
e 10 25
e 10 26
e 10 27
e 10 28
e 10 30
e 10 31
e 10 32
e 10 33
e 10 37
e 10 38
e 10 40
e 10 42
e 10 48
e 11 14
e 11 15
e 11 16
e 11 18
e 11 24
e 11 27
e 11 29
e 11 31
e 11 32
e 11 33
e 11 34
e 11 35
e 11 38
e 11 40
e 11 41
e 11 42
e 11 43
e 11 49
e 12 14
e 12 17
e 12 18
e 12 21
e 12 22
e 12 23
e 12 24
e 12 25
e 12 31
e 12 36
e 12 45
e 12 46
e 13 14
e 13 16
e 13 17
e 13 18
e 13 21
e 13 22
e 13 24
e 13 28
e 13 31
e 13 32
e 13 34
e 13 35
e 13 38
e 13 41
e 13 45
e 13 47
e 13 49
e 14 17
e 14 18
e 14 22
e 14 25
e 14 26
e 14 29
e 14 31
e 14 33
e 14 37
e 14 39
e 14 40
e 14 42
e 14 44
e 14 47
e 14 48
e 14 49
e 15 16
e 15 17
e 15 18
e 15 19
e 15 22
e 15 23
e 15 28
e 15 30
e 15 32
e 15 33
e 15 34
e 15 35
e 15 36
e 15 37
e 15 39
e 15 41
e 15 43
e 15 47
e 16 17
e 16 18
e 16 21
e 16 24
e 16 26
e 16 27
e 16 29
e 16 30
e 16 31
e 16 32
e 16 35
e 16 36
e 16 38
e 16 39
e 16 40
e 16 41
e 16 42
e 16 48
e 17 20
e 17 21
e 17 24
e 17 28
e 17 29
e 17 30
e 17 31
e 17 33
e 17 39
e 17 41
e 17 45
e 17 46
e 17 48
e 17 49
e 18 20
e 18 22
e 18 23
e 18 24
e 18 27
e 18 29
e 18 31
e 18 32
e 18 33
e 18 35
e 18 36
e 18 40
e 18 41
e 18 42
e 18 44
e 18 45
e 18 49
e 19 21
e 19 29
e 19 30
e 19 31
e 19 33
e 19 34
e 19 36
e 19 39
e 19 40
e 19 41
e 19 42
e 19 46
e 19 48
e 19 49
e 20 21
e 20 23
e 20 31
e 20 38
e 20 41
e 20 42
e 20 45
e 20 46
e 21 22
e 21 23
e 21 25
e 21 26
e 21 28
e 21 29
e 21 30
e 21 33
e 21 34
e 21 37
e 21 39
e 21 40
e 21 43
e 21 48
e 22 29
e 22 30
e 22 34
e 22 35
e 22 39
e 22 41
e 22 42
e 22 43
e 22 45
e 22 46
e 22 47
e 23 32
e 23 34
e 23 35
e 23 40
e 23 45
e 23 46
e 24 28
e 24 29
e 24 31
e 24 33
e 24 34
e 24 35
e 24 36
e 24 37
e 24 38
e 24 39
e 24 40
e 24 41
e 24 44
e 24 46
e 25 26
e 25 28
e 25 30
e 25 33
e 25 34
e 25 36
e 25 37
e 25 38
e 25 39
e 25 41
e 25 44
e 25 49
e 26 29
e 26 31
e 26 33
e 26 34
e 26 35
e 26 36
e 26 41
e 26 42
e 26 44
e 26 47
e 26 49
e 27 28
e 27 30
e 27 32
e 27 35
e 27 36
e 27 39
e 27 41
e 27 42
e 27 43
e 27 48
e 28 29
e 28 32
e 28 33
e 28 35
e 28 36
e 28 37
e 28 43
e 28 44
e 28 45
e 28 47
e 28 48
e 28 49
e 29 30
e 29 31
e 29 33
e 29 37
e 29 38
e 29 43
e 29 44
e 29 45
e 29 46
e 29 47
e 29 48
e 29 49
e 30 35
e 30 36
e 30 39
e 30 40
e 30 41
e 30 42
e 30 44
e 30 45
e 30 48
e 31 33
e 31 34
e 31 35
e 31 36
e 31 39
e 31 40
e 31 42
e 31 43
e 31 44
e 31 45
e 31 46
e 31 47
e 31 48
e 32 34
e 32 36
e 32 38
e 32 40
e 32 46
e 33 36
e 33 40
e 33 42
e 33 43
e 33 44
e 33 46
e 33 47
e 33 49
e 34 35
e 34 36
e 34 37
e 34 44
e 34 45
e 34 47
e 34 49
e 35 37
e 35 40
e 35 42
e 35 44
e 35 45
e 35 46
e 35 48
e 36 39
e 36 43
e 36 46
e 36 49
e 37 39
e 37 41
e 37 42
e 37 43
e 37 45
e 37 46
e 37 47
e 37 48
e 38 39
e 38 40
e 38 46
e 38 48
e 39 40
e 39 41
e 39 44
e 39 46
e 40 41
e 40 42
e 40 43
e 40 44
e 40 46
e 41 42
e 41 45
e 41 47
e 41 48
e 42 44
e 42 46
e 42 48
e 43 44
e 43 45
e 43 49
e 44 45
e 44 46
e 44 49
e 45 46
e 46 48
e 46 49
e 47 48
e 47 49
e 48 49
